
;this file is automatically generated: Mon Oct 26 19:31:23 CST 2020

;declarations generated

(declare-fun oclExcludes ( Int Int) Bool)
(declare-fun Cardinality ( Int) Int)
(declare-fun class40_Class40BoolAttr0 ( Int) Bool)
(declare-fun class40_Class40BoolAttr1 ( Int) Bool)
(declare-fun type_ad8b2743_26e3_4f2e_9a91_8d718ef773d0_Class40 ( Int) Bool)
(declare-fun type_ad8b2743_26e3_4f2e_9a91_8d718ef773d0_Class20 ( Int) Bool)
(declare-fun type_ad8b2743_26e3_4f2e_9a91_8d718ef773d0_Class21 ( Int) Bool)
(declare-fun type_ad8b2743_26e3_4f2e_9a91_8d718ef773d0_Class2 ( Int) Bool)
(declare-fun oclSelect ( Int Bool) Int)
(declare-fun Enum0 ( Int) Int)
(declare-fun Enum1 ( Int) Int)
(declare-fun Enum2 ( Int) Int)
(declare-fun container_ ( Int) Int)
(declare-fun class40_Class40IntAttr2 ( Int) Int)
(declare-fun obj_b83439e9_9a22_422c_98bf_24ef83ddb09d ( Int) Int)
(declare-fun oclIncludes ( Int Int) Bool)
(declare-fun ObjAt ( Int Int) Int)

;formula(s) generated
(assert (forall ((p Int)) (=> ( type_ad8b2743_26e3_4f2e_9a91_8d718ef773d0_Class40 p )  (and (>= ( Enum0 ( obj_b83439e9_9a22_422c_98bf_24ef83ddb09d p )  )  0) (<= ( Enum0 ( obj_b83439e9_9a22_422c_98bf_24ef83ddb09d p )  )  3)))))
(assert (! (or (forall ((v Int)) (=> (and (and (and ( type_ad8b2743_26e3_4f2e_9a91_8d718ef773d0_Class40 v )  ( type_ad8b2743_26e3_4f2e_9a91_8d718ef773d0_Class21 v ) ) ( type_ad8b2743_26e3_4f2e_9a91_8d718ef773d0_Class2 v ) ) ( type_ad8b2743_26e3_4f2e_9a91_8d718ef773d0_Class20 v ) ) ( class40_Class40BoolAttr1 ( obj_b83439e9_9a22_422c_98bf_24ef83ddb09d v )  ) )) (forall ((v Int)) (=> (and (and (and ( type_ad8b2743_26e3_4f2e_9a91_8d718ef773d0_Class40 v )  ( type_ad8b2743_26e3_4f2e_9a91_8d718ef773d0_Class21 v ) ) ( type_ad8b2743_26e3_4f2e_9a91_8d718ef773d0_Class2 v ) ) ( type_ad8b2743_26e3_4f2e_9a91_8d718ef773d0_Class20 v ) ) (or (not (= ( class40_Class40IntAttr2 ( obj_b83439e9_9a22_422c_98bf_24ef83ddb09d v )  )  14) ) (and (forall ((v Int)) (=> (and (and (and ( type_ad8b2743_26e3_4f2e_9a91_8d718ef773d0_Class40 v )  ( type_ad8b2743_26e3_4f2e_9a91_8d718ef773d0_Class21 v ) ) ( type_ad8b2743_26e3_4f2e_9a91_8d718ef773d0_Class2 v ) ) ( type_ad8b2743_26e3_4f2e_9a91_8d718ef773d0_Class20 v ) ) ( class40_Class40BoolAttr0 ( obj_b83439e9_9a22_422c_98bf_24ef83ddb09d v )  ) )) (forall ((v Int)) (=> (and (and (and ( type_ad8b2743_26e3_4f2e_9a91_8d718ef773d0_Class40 v )  ( type_ad8b2743_26e3_4f2e_9a91_8d718ef773d0_Class21 v ) ) ( type_ad8b2743_26e3_4f2e_9a91_8d718ef773d0_Class2 v ) ) ( type_ad8b2743_26e3_4f2e_9a91_8d718ef773d0_Class20 v ) ) (>= ( class40_Class40IntAttr2 ( obj_b83439e9_9a22_422c_98bf_24ef83ddb09d v )  )  6)))))))):named l0))
(assert (! (and (forall ((v Int)) (=> (and (and (and ( type_ad8b2743_26e3_4f2e_9a91_8d718ef773d0_Class40 v )  ( type_ad8b2743_26e3_4f2e_9a91_8d718ef773d0_Class21 v ) ) ( type_ad8b2743_26e3_4f2e_9a91_8d718ef773d0_Class2 v ) ) ( type_ad8b2743_26e3_4f2e_9a91_8d718ef773d0_Class20 v ) ) (= ( Enum0 ( obj_b83439e9_9a22_422c_98bf_24ef83ddb09d v )  )  1))) (forall ((v Int)) (=> (and (and (and ( type_ad8b2743_26e3_4f2e_9a91_8d718ef773d0_Class40 v )  ( type_ad8b2743_26e3_4f2e_9a91_8d718ef773d0_Class21 v ) ) ( type_ad8b2743_26e3_4f2e_9a91_8d718ef773d0_Class2 v ) ) ( type_ad8b2743_26e3_4f2e_9a91_8d718ef773d0_Class20 v ) ) (< ( class40_Class40IntAttr2 ( obj_b83439e9_9a22_422c_98bf_24ef83ddb09d v )  )  12)))):named l1))
(assert (exists ((o Int)) (and (and (and ( type_ad8b2743_26e3_4f2e_9a91_8d718ef773d0_Class40 ( obj_b83439e9_9a22_422c_98bf_24ef83ddb09d o )  )  ( type_ad8b2743_26e3_4f2e_9a91_8d718ef773d0_Class21 ( obj_b83439e9_9a22_422c_98bf_24ef83ddb09d o )  ) ) ( type_ad8b2743_26e3_4f2e_9a91_8d718ef773d0_Class2 ( obj_b83439e9_9a22_422c_98bf_24ef83ddb09d o )  ) ) ( type_ad8b2743_26e3_4f2e_9a91_8d718ef773d0_Class20 ( obj_b83439e9_9a22_422c_98bf_24ef83ddb09d o )  ) )))

 ;end of formula 